c 
p cnf 10 40
2 9 1 0
10 6 -9 0
-1 8 -9 0
-5 -6 8 0
-4 -6 10 0
-3 -10 9 0
2 -10 7 0
8 7 3 0
3 2 -7 0
7 -5 8 0
-4 5 8 0
7 -5 -10 0
-4 -10 -2 0
-10 -4 8 0
1 2 6 0
1 -8 -6 0
-9 -5 2 0
8 -7 -4 0
-1 7 9 0
-7 -6 10 0
-3 -6 2 0
7 8 -4 0
7 -10 9 0
6 4 -8 0
-8 9 7 0
-4 -2 5 0
-3 8 10 0
-5 -10 3 0
7 9 -8 0
-8 -1 -5 0
4 -10 -9 0
5 10 2 0
8 -9 -7 0
5 -3 -9 0
8 10 2 0
5 -8 6 0
1 3 -4 0
-5 2 8 0
7 2 1 0
5 9 -6 0
